94
0 32 53 78 71 1 64 38 6 67 
14 57 77 93 5 21 59 90 37 55 
26 15 10 33 17 3 29 12 49 58 
52 36 18 50 63 16 47 44 42 70 
73 9 74 62 11 83 30 51 54 65 
91 88 13 69 41 81 79 43 76 92 
48 89 86 75 2 35 27 34 28 22 
45 7 19 20 60 8 85 23 84 24 
61 82 68 39 46 80 66 40 72 25 
4 56 87 31 
